DATASET = "thpack7";
INSTANCE = "004";

WIDTH = 233;
HEIGHT = 220;
LENGTH = 587;

NO_OF_SHAPES = 20;
size = [|
  113,92,33 |
  52,37,28 |
  57,33,29 |
  99,37,30 |
  92,64,33 |
  119,59,39 |
  54,52,49 |
  75,45,35 |
  79,68,44 |
  116,49,47 |
  83,44,23 |
  98,96,56 |
  78,72,57 |
  98,88,47 |
  41,33,31 |
  59,35,34 |
  83,78,37 |
  68,34,33 |
  103,69,49 |
  97,53,32 |
|];

verticality = [|
  0,0,1 |
  1,1,1 |
  1,1,1 |
  0,1,1 |
  0,1,1 |
  0,1,1 |
  1,1,1 |
  0,1,1 |
  1,1,1 |
  0,1,1 |
  0,1,1 |
  1,1,1 |
  1,1,1 |
  0,1,1 |
  1,1,1 |
  1,1,1 |
  0,0,1 |
  0,1,1 |
  0,1,1 |
  0,1,1 |
|];

box_count = [
  7,
  6,
  8,
  5,
  11,
  4,
  16,
  4,
  6,
  5,
  7,
  9,
  4,
  9,
  13,
  6,
  4,
  8,
  8,
  13,
];
